p cnf 430 1488
-191 169 0
-191 -118 0
-191 -73 0
-191 18 0
-191 128 0
191 -169 118 73 -18 -128 0
-192 -92 0
-192 109 0
-192 -105 0
-192 -19 0
-192 70 0
192 92 -109 105 19 -70 0
-193 -168 0
-193 -84 0
-193 -173 0
-193 63 0
-193 176 0
193 168 84 173 -63 -176 0
-194 -139 0
-194 5 0
-194 -185 0
-194 118 0
-194 -101 0
194 139 -5 185 -118 101 0
-195 22 0
-195 86 0
-195 103 0
-195 -140 0
-195 128 0
195 -22 -86 -103 140 -128 0
191 192 193 194 195 0
-196 -147 0
-196 -130 0
-196 -161 0
-196 24 0
-196 52 0
196 147 130 161 -24 -52 0
-197 -1 0
-197 112 0
-197 165 0
-197 36 0
-197 -179 0
197 1 -112 -165 -36 179 0
-198 -93 0
-198 -65 0
-198 -183 0
-198 170 0
-198 182 0
198 93 65 183 -170 -182 0
-199 115 0
-199 -170 0
-199 -112 0
-199 23 0
-199 -21 0
199 -115 170 112 -23 21 0
-200 190 0
-200 -19 0
-200 61 0
-200 -11 0
-200 -132 0
200 -190 19 -61 11 132 0
196 197 198 199 200 0
-201 158 0
-201 84 0
-201 34 0
-201 148 0
-201 90 0
201 -158 -84 -34 -148 -90 0
-202 118 0
-202 20 0
-202 -37 0
-202 94 0
-202 55 0
202 -118 -20 37 -94 -55 0
-203 -107 0
-203 -82 0
-203 176 0
-203 -46 0
-203 9 0
203 107 82 -176 46 -9 0
-204 67 0
-204 -29 0
-204 106 0
-204 -55 0
-204 -163 0
204 -67 29 -106 55 163 0
-205 -84 0
-205 -69 0
-205 -66 0
-205 60 0
-205 166 0
205 84 69 66 -60 -166 0
201 202 203 204 205 0
-206 90 0
-206 -172 0
-206 180 0
-206 -117 0
-206 -34 0
206 -90 172 -180 117 34 0
-207 -51 0
-207 -180 0
-207 150 0
-207 131 0
-207 -109 0
207 51 180 -150 -131 109 0
-208 -177 0
-208 -106 0
-208 110 0
-208 -92 0
-208 91 0
208 177 106 -110 92 -91 0
-209 163 0
-209 27 0
-209 -62 0
-209 72 0
-209 -100 0
209 -163 -27 62 -72 100 0
-210 -11 0
-210 -17 0
-210 77 0
-210 -25 0
-210 -90 0
210 11 17 -77 25 90 0
206 207 208 209 210 0
-211 173 0
-211 -171 0
-211 -104 0
-211 188 0
-211 84 0
211 -173 171 104 -188 -84 0
-212 84 0
-212 -13 0
-212 -12 0
-212 158 0
-212 -34 0
212 -84 13 12 -158 34 0
-213 121 0
-213 164 0
-213 108 0
-213 -22 0
-213 -98 0
213 -121 -164 -108 22 98 0
-214 -59 0
-214 -13 0
-214 124 0
-214 -65 0
-214 2 0
214 59 13 -124 65 -2 0
-215 -75 0
-215 -108 0
-215 176 0
-215 42 0
-215 73 0
215 75 108 -176 -42 -73 0
211 212 213 214 215 0
-216 34 0
-216 158 0
-216 130 0
-216 -26 0
-216 -178 0
216 -34 -158 -130 26 178 0
-217 -135 0
-217 119 0
-217 115 0
-217 -6 0
-217 -183 0
217 135 -119 -115 6 183 0
-218 17 0
-218 -94 0
-218 31 0
-218 162 0
-218 124 0
218 -17 94 -31 -162 -124 0
-219 151 0
-219 -21 0
-219 -144 0
-219 -65 0
-219 147 0
219 -151 21 144 65 -147 0
-220 138 0
-220 -82 0
-220 18 0
-220 159 0
-220 7 0
220 -138 82 -18 -159 -7 0
216 217 218 219 220 0
-221 -157 0
-221 -184 0
-221 -14 0
-221 -11 0
-221 -46 0
221 157 184 14 11 46 0
-222 120 0
-222 -51 0
-222 113 0
-222 -98 0
-222 85 0
222 -120 51 -113 98 -85 0
-223 -101 0
-223 31 0
-223 -142 0
-223 185 0
-223 98 0
223 101 -31 142 -185 -98 0
-224 -66 0
-224 36 0
-224 -180 0
-224 -131 0
-224 -130 0
224 66 -36 180 131 130 0
-225 -82 0
-225 44 0
-225 -22 0
-225 167 0
-225 18 0
225 82 -44 22 -167 -18 0
221 222 223 224 225 0
-226 -39 0
-226 146 0
-226 -181 0
-226 -88 0
-226 -185 0
226 39 -146 181 88 185 0
-227 -176 0
-227 -17 0
-227 27 0
-227 -143 0
-227 141 0
227 176 17 -27 143 -141 0
-228 -84 0
-228 115 0
-228 169 0
-228 52 0
-228 -100 0
228 84 -115 -169 -52 100 0
-229 -187 0
-229 135 0
-229 -7 0
-229 138 0
-229 99 0
229 187 -135 7 -138 -99 0
-230 150 0
-230 190 0
-230 148 0
-230 103 0
-230 -71 0
230 -150 -190 -148 -103 71 0
226 227 228 229 230 0
-231 146 0
-231 53 0
-231 98 0
-231 -57 0
-231 134 0
231 -146 -53 -98 57 -134 0
-232 -126 0
-232 -47 0
-232 -183 0
-232 -90 0
-232 117 0
232 126 47 183 90 -117 0
-233 44 0
-233 170 0
-233 -143 0
-233 87 0
-233 78 0
233 -44 -170 143 -87 -78 0
-234 115 0
-234 -50 0
-234 -81 0
-234 -132 0
-234 -90 0
234 -115 50 81 132 90 0
-235 -84 0
-235 -82 0
-235 61 0
-235 28 0
-235 112 0
235 84 82 -61 -28 -112 0
231 232 233 234 235 0
-236 -149 0
-236 47 0
-236 58 0
-236 119 0
-236 26 0
236 149 -47 -58 -119 -26 0
-237 -77 0
-237 -187 0
-237 -95 0
-237 83 0
-237 -15 0
237 77 187 95 -83 15 0
-238 143 0
-238 -8 0
-238 82 0
-238 -162 0
-238 -90 0
238 -143 8 -82 162 90 0
-239 -117 0
-239 -14 0
-239 157 0
-239 134 0
-239 -127 0
239 117 14 -157 -134 127 0
-240 -95 0
-240 116 0
-240 -109 0
-240 99 0
-240 133 0
240 95 -116 109 -99 -133 0
236 237 238 239 240 0
-241 -91 0
-241 163 0
-241 110 0
-241 -176 0
-241 29 0
241 91 -163 -110 176 -29 0
-242 179 0
-242 -18 0
-242 -42 0
-242 82 0
-242 -8 0
242 -179 18 42 -82 8 0
-243 34 0
-243 40 0
-243 -176 0
-243 98 0
-243 134 0
243 -34 -40 176 -98 -134 0
-244 -162 0
-244 -11 0
-244 -12 0
-244 124 0
-244 4 0
244 162 11 12 -124 -4 0
-245 -141 0
-245 19 0
-245 15 0
-245 3 0
-245 9 0
245 141 -19 -15 -3 -9 0
241 242 243 244 245 0
-246 -107 0
-246 21 0
-246 171 0
-246 -79 0
-246 143 0
246 107 -21 -171 79 -143 0
-247 -148 0
-247 -120 0
-247 22 0
-247 -92 0
-247 143 0
247 148 120 -22 92 -143 0
-248 128 0
-248 27 0
-248 -125 0
-248 174 0
-248 168 0
248 -128 -27 125 -174 -168 0
-249 86 0
-249 -122 0
-249 16 0
-249 52 0
-249 -47 0
249 -86 122 -16 -52 47 0
-250 13 0
-250 82 0
-250 -29 0
-250 -162 0
-250 -172 0
250 -13 -82 29 162 172 0
246 247 248 249 250 0
-251 -130 0
-251 132 0
-251 -94 0
-251 -30 0
-251 159 0
251 130 -132 94 30 -159 0
-252 127 0
-252 -27 0
-252 -98 0
-252 121 0
-252 -4 0
252 -127 27 98 -121 4 0
-253 -28 0
-253 172 0
-253 -122 0
-253 -14 0
-253 164 0
253 28 -172 122 14 -164 0
-254 -55 0
-254 -26 0
-254 175 0
-254 -137 0
-254 -120 0
254 55 26 -175 137 120 0
-255 131 0
-255 84 0
-255 88 0
-255 127 0
-255 59 0
255 -131 -84 -88 -127 -59 0
251 252 253 254 255 0
-256 42 0
-256 -152 0
-256 -180 0
-256 -69 0
-256 -169 0
256 -42 152 180 69 169 0
-257 66 0
-257 147 0
-257 2 0
-257 -121 0
-257 73 0
257 -66 -147 -2 121 -73 0
-258 73 0
-258 -121 0
-258 -41 0
-258 150 0
-258 187 0
258 -73 121 41 -150 -187 0
-259 -67 0
-259 -77 0
-259 -156 0
-259 81 0
-259 -18 0
259 67 77 156 -81 18 0
-260 -88 0
-260 -43 0
-260 -83 0
-260 -166 0
-260 -82 0
260 88 43 83 166 82 0
256 257 258 259 260 0
-261 162 0
-261 -97 0
-261 175 0
-261 143 0
-261 -20 0
261 -162 97 -175 -143 20 0
-262 -160 0
-262 -13 0
-262 -28 0
-262 183 0
-262 -67 0
262 160 13 28 -183 67 0
-263 -42 0
-263 -155 0
-263 104 0
-263 115 0
-263 -83 0
263 42 155 -104 -115 83 0
-264 -184 0
-264 -104 0
-264 51 0
-264 -80 0
-264 159 0
264 184 104 -51 80 -159 0
-265 -113 0
-265 -47 0
-265 -146 0
-265 91 0
-265 -138 0
265 113 47 146 -91 138 0
261 262 263 264 265 0
-266 -135 0
-266 114 0
-266 -82 0
-266 2 0
-266 -21 0
266 135 -114 82 -2 21 0
-267 52 0
-267 153 0
-267 70 0
-267 88 0
-267 119 0
267 -52 -153 -70 -88 -119 0
-268 -58 0
-268 -68 0
-268 125 0
-268 -48 0
-268 156 0
268 58 68 -125 48 -156 0
-269 -26 0
-269 75 0
-269 72 0
-269 -44 0
-269 189 0
269 26 -75 -72 44 -189 0
-270 36 0
-270 -22 0
-270 152 0
-270 78 0
-270 26 0
270 -36 22 -152 -78 -26 0
266 267 268 269 270 0
-271 -38 0
-271 106 0
-271 46 0
-271 -184 0
-271 154 0
271 38 -106 -46 184 -154 0
-272 -21 0
-272 -142 0
-272 -161 0
-272 55 0
-272 13 0
272 21 142 161 -55 -13 0
-273 35 0
-273 -113 0
-273 31 0
-273 -51 0
-273 67 0
273 -35 113 -31 51 -67 0
-274 168 0
-274 -38 0
-274 -112 0
-274 -73 0
-274 91 0
274 -168 38 112 73 -91 0
-275 -27 0
-275 -84 0
-275 -94 0
-275 10 0
-275 145 0
275 27 84 94 -10 -145 0
271 272 273 274 275 0
-276 -98 0
-276 -124 0
-276 91 0
-276 -121 0
-276 154 0
276 98 124 -91 121 -154 0
-277 -161 0
-277 186 0
-277 -62 0
-277 23 0
-277 154 0
277 161 -186 62 -23 -154 0
-278 79 0
-278 -7 0
-278 -157 0
-278 -139 0
-278 -44 0
278 -79 7 157 139 44 0
-279 97 0
-279 19 0
-279 -127 0
-279 -84 0
-279 73 0
279 -97 -19 127 84 -73 0
-280 85 0
-280 -47 0
-280 59 0
-280 90 0
-280 125 0
280 -85 47 -59 -90 -125 0
276 277 278 279 280 0
-281 126 0
-281 140 0
-281 -48 0
-281 -44 0
-281 -156 0
281 -126 -140 48 44 156 0
-282 17 0
-282 148 0
-282 -47 0
-282 139 0
-282 154 0
282 -17 -148 47 -139 -154 0
-283 85 0
-283 -114 0
-283 177 0
-283 150 0
-283 -48 0
283 -85 114 -177 -150 48 0
-284 -163 0
-284 -8 0
-284 67 0
-284 88 0
-284 -184 0
284 163 8 -67 -88 184 0
-285 32 0
-285 109 0
-285 -47 0
-285 143 0
-285 89 0
285 -32 -109 47 -143 -89 0
281 282 283 284 285 0
-286 -65 0
-286 -83 0
-286 57 0
-286 31 0
-286 108 0
286 65 83 -57 -31 -108 0
-287 132 0
-287 -26 0
-287 19 0
-287 -68 0
-287 66 0
287 -132 26 -19 68 -66 0
-288 -30 0
-288 143 0
-288 -33 0
-288 -94 0
-288 -12 0
288 30 -143 33 94 12 0
-289 -155 0
-289 -159 0
-289 141 0
-289 99 0
-289 -115 0
289 155 159 -141 -99 115 0
-290 -187 0
-290 111 0
-290 14 0
-290 -175 0
-290 56 0
290 187 -111 -14 175 -56 0
286 287 288 289 290 0
-291 -90 0
-291 -142 0
-291 -167 0
-291 -141 0
-291 54 0
291 90 142 167 141 -54 0
-292 58 0
-292 186 0
-292 -79 0
-292 -113 0
-292 187 0
292 -58 -186 79 113 -187 0
-293 54 0
-293 97 0
-293 -4 0
-293 162 0
-293 111 0
293 -54 -97 4 -162 -111 0
-294 170 0
-294 45 0
-294 151 0
-294 -178 0
-294 -142 0
294 -170 -45 -151 178 142 0
-295 111 0
-295 -137 0
-295 64 0
-295 -133 0
-295 -182 0
295 -111 137 -64 133 182 0
291 292 293 294 295 0
-296 -110 0
-296 -176 0
-296 88 0
-296 -120 0
-296 130 0
296 110 176 -88 120 -130 0
-297 1 0
-297 -142 0
-297 60 0
-297 -104 0
-297 164 0
297 -1 142 -60 104 -164 0
-298 -123 0
-298 177 0
-298 -68 0
-298 8 0
-298 144 0
298 123 -177 68 -8 -144 0
-299 -138 0
-299 -133 0
-299 10 0
-299 -117 0
-299 176 0
299 138 133 -10 117 -176 0
-300 145 0
-300 -4 0
-300 131 0
-300 163 0
-300 -86 0
300 -145 4 -131 -163 86 0
296 297 298 299 300 0
-301 -190 0
-301 -116 0
-301 -129 0
-301 36 0
-301 21 0
301 190 116 129 -36 -21 0
-302 10 0
-302 40 0
-302 -30 0
-302 -157 0
-302 32 0
302 -10 -40 30 157 -32 0
-303 -2 0
-303 41 0
-303 -127 0
-303 -19 0
-303 -133 0
303 2 -41 127 19 133 0
-304 -141 0
-304 -123 0
-304 170 0
-304 175 0
-304 44 0
304 141 123 -170 -175 -44 0
-305 177 0
-305 -121 0
-305 -106 0
-305 82 0
-305 -95 0
305 -177 121 106 -82 95 0
301 302 303 304 305 0
-306 -112 0
-306 -92 0
-306 -189 0
-306 42 0
-306 -174 0
306 112 92 189 -42 174 0
-307 77 0
-307 51 0
-307 161 0
-307 111 0
-307 -33 0
307 -77 -51 -161 -111 33 0
-308 121 0
-308 -56 0
-308 -47 0
-308 48 0
-308 -190 0
308 -121 56 47 -48 190 0
-309 -50 0
-309 37 0
-309 -158 0
-309 123 0
-309 57 0
309 50 -37 158 -123 -57 0
-310 140 0
-310 113 0
-310 -43 0
-310 156 0
-310 -142 0
310 -140 -113 43 -156 142 0
306 307 308 309 310 0
-311 121 0
-311 -70 0
-311 -127 0
-311 -30 0
-311 77 0
311 -121 70 127 30 -77 0
-312 -55 0
-312 160 0
-312 -148 0
-312 18 0
-312 -47 0
312 55 -160 148 -18 47 0
-313 83 0
-313 67 0
-313 -17 0
-313 -170 0
-313 181 0
313 -83 -67 17 170 -181 0
-314 172 0
-314 -71 0
-314 52 0
-314 50 0
-314 -78 0
314 -172 71 -52 -50 78 0
-315 -178 0
-315 -167 0
-315 -42 0
-315 -67 0
-315 2 0
315 178 167 42 67 -2 0
311 312 313 314 315 0
-316 88 0
-316 99 0
-316 129 0
-316 62 0
-316 21 0
316 -88 -99 -129 -62 -21 0
-317 -106 0
-317 85 0
-317 -33 0
-317 -13 0
-317 -1 0
317 106 -85 33 13 1 0
-318 147 0
-318 176 0
-318 -164 0
-318 -186 0
-318 -152 0
318 -147 -176 164 186 152 0
-319 161 0
-319 -40 0
-319 61 0
-319 -22 0
-319 25 0
319 -161 40 -61 22 -25 0
-320 190 0
-320 41 0
-320 -184 0
-320 -21 0
-320 -186 0
320 -190 -41 184 21 186 0
316 317 318 319 320 0
-321 99 0
-321 -36 0
-321 29 0
-321 -149 0
-321 145 0
321 -99 36 -29 149 -145 0
-322 -151 0
-322 53 0
-322 -23 0
-322 -16 0
-322 175 0
322 151 -53 23 16 -175 0
-323 -133 0
-323 -98 0
-323 143 0
-323 -172 0
-323 140 0
323 133 98 -143 172 -140 0
-324 -172 0
-324 -115 0
-324 -70 0
-324 -76 0
-324 55 0
324 172 115 70 76 -55 0
-325 141 0
-325 -162 0
-325 -60 0
-325 -131 0
-325 155 0
325 -141 162 60 131 -155 0
321 322 323 324 325 0
-326 -90 0
-326 -150 0
-326 -186 0
-326 -118 0
-326 136 0
326 90 150 186 118 -136 0
-327 115 0
-327 -1 0
-327 179 0
-327 -18 0
-327 45 0
327 -115 1 -179 18 -45 0
-328 -139 0
-328 63 0
-328 -86 0
-328 127 0
-328 188 0
328 139 -63 86 -127 -188 0
-329 -56 0
-329 -67 0
-329 178 0
-329 -101 0
-329 13 0
329 56 67 -178 101 -13 0
-330 -155 0
-330 43 0
-330 18 0
-330 169 0
-330 -142 0
330 155 -43 -18 -169 142 0
326 327 328 329 330 0
-331 -103 0
-331 -148 0
-331 -156 0
-331 172 0
-331 181 0
331 103 148 156 -172 -181 0
-332 -80 0
-332 93 0
-332 -146 0
-332 -177 0
-332 -37 0
332 80 -93 146 177 37 0
-333 68 0
-333 144 0
-333 175 0
-333 -177 0
-333 96 0
333 -68 -144 -175 177 -96 0
-334 -185 0
-334 -3 0
-334 -14 0
-334 64 0
-334 75 0
334 185 3 14 -64 -75 0
-335 167 0
-335 17 0
-335 -117 0
-335 -47 0
-335 80 0
335 -167 -17 117 47 -80 0
331 332 333 334 335 0
-336 -68 0
-336 -183 0
-336 182 0
-336 81 0
-336 -117 0
336 68 183 -182 -81 117 0
-337 -94 0
-337 168 0
-337 174 0
-337 -182 0
-337 143 0
337 94 -168 -174 182 -143 0
-338 -51 0
-338 127 0
-338 -82 0
-338 56 0
-338 -53 0
338 51 -127 82 -56 53 0
-339 76 0
-339 -25 0
-339 93 0
-339 -115 0
-339 -85 0
339 -76 25 -93 115 85 0
-340 -169 0
-340 36 0
-340 -161 0
-340 -129 0
-340 -127 0
340 169 -36 161 129 127 0
336 337 338 339 340 0
-341 -7 0
-341 6 0
-341 -161 0
-341 -130 0
-341 153 0
341 7 -6 161 130 -153 0
-342 139 0
-342 120 0
-342 167 0
-342 40 0
-342 170 0
342 -139 -120 -167 -40 -170 0
-343 -116 0
-343 -107 0
-343 80 0
-343 -71 0
-343 -129 0
343 116 107 -80 71 129 0
-344 -167 0
-344 -163 0
-344 -25 0
-344 -106 0
-344 31 0
344 167 163 25 106 -31 0
-345 66 0
-345 -1 0
-345 -88 0
-345 -102 0
-345 175 0
345 -66 1 88 102 -175 0
341 342 343 344 345 0
-346 106 0
-346 -42 0
-346 135 0
-346 153 0
-346 -179 0
346 -106 42 -135 -153 179 0
-347 -165 0
-347 14 0
-347 163 0
-347 73 0
-347 -67 0
347 165 -14 -163 -73 67 0
-348 165 0
-348 -110 0
-348 139 0
-348 -99 0
-348 -138 0
348 -165 110 -139 99 138 0
-349 -28 0
-349 -77 0
-349 158 0
-349 -3 0
-349 -18 0
349 28 77 -158 3 18 0
-350 97 0
-350 38 0
-350 -184 0
-350 -174 0
-350 150 0
350 -97 -38 184 174 -150 0
346 347 348 349 350 0
-351 162 0
-351 -89 0
-351 170 0
-351 42 0
-351 88 0
351 -162 89 -170 -42 -88 0
-352 -123 0
-352 -88 0
-352 8 0
-352 -40 0
-352 -78 0
352 123 88 -8 40 78 0
-353 -151 0
-353 183 0
-353 -61 0
-353 -122 0
-353 34 0
353 151 -183 61 122 -34 0
-354 91 0
-354 -33 0
-354 19 0
-354 16 0
-354 -31 0
354 -91 33 -19 -16 31 0
-355 -168 0
-355 -36 0
-355 -109 0
-355 -127 0
-355 142 0
355 168 36 109 127 -142 0
351 352 353 354 355 0
-356 169 0
-356 -168 0
-356 140 0
-356 -9 0
-356 148 0
356 -169 168 -140 9 -148 0
-357 -24 0
-357 75 0
-357 173 0
-357 180 0
-357 -78 0
357 24 -75 -173 -180 78 0
-358 -50 0
-358 87 0
-358 174 0
-358 -56 0
-358 -104 0
358 50 -87 -174 56 104 0
-359 175 0
-359 -180 0
-359 -173 0
-359 -153 0
-359 -27 0
359 -175 180 173 153 27 0
-360 16 0
-360 -148 0
-360 -52 0
-360 -185 0
-360 50 0
360 -16 148 52 185 -50 0
356 357 358 359 360 0
-361 134 0
-361 74 0
-361 -31 0
-361 -33 0
-361 -128 0
361 -134 -74 31 33 128 0
-362 -91 0
-362 -105 0
-362 -67 0
-362 -98 0
-362 90 0
362 91 105 67 98 -90 0
-363 166 0
-363 53 0
-363 128 0
-363 160 0
-363 -30 0
363 -166 -53 -128 -160 30 0
-364 -11 0
-364 -32 0
-364 -24 0
-364 35 0
-364 119 0
364 11 32 24 -35 -119 0
-365 -151 0
-365 8 0
-365 -76 0
-365 15 0
-365 -173 0
365 151 -8 76 -15 173 0
361 362 363 364 365 0
-366 96 0
-366 -161 0
-366 -166 0
-366 -38 0
-366 142 0
366 -96 161 166 38 -142 0
-367 -152 0
-367 170 0
-367 28 0
-367 120 0
-367 -11 0
367 152 -170 -28 -120 11 0
-368 79 0
-368 -15 0
-368 -51 0
-368 19 0
-368 86 0
368 -79 15 51 -19 -86 0
-369 -62 0
-369 -69 0
-369 26 0
-369 -82 0
-369 -76 0
369 62 69 -26 82 76 0
-370 41 0
-370 -70 0
-370 30 0
-370 -100 0
-370 -22 0
370 -41 70 -30 100 22 0
366 367 368 369 370 0
-371 -61 0
-371 50 0
-371 18 0
-371 -27 0
-371 -13 0
371 61 -50 -18 27 13 0
-372 170 0
-372 -165 0
-372 -21 0
-372 -40 0
-372 -18 0
372 -170 165 21 40 18 0
-373 -104 0
-373 187 0
-373 6 0
-373 -95 0
-373 -25 0
373 104 -187 -6 95 25 0
-374 -115 0
-374 7 0
-374 -120 0
-374 -48 0
-374 -94 0
374 115 -7 120 48 94 0
-375 -91 0
-375 -120 0
-375 72 0
-375 48 0
-375 125 0
375 91 120 -72 -48 -125 0
371 372 373 374 375 0
-376 -36 0
-376 -128 0
-376 189 0
-376 -147 0
-376 71 0
376 36 128 -189 147 -71 0
-377 -136 0
-377 -38 0
-377 -139 0
-377 77 0
-377 43 0
377 136 38 139 -77 -43 0
-378 -43 0
-378 -98 0
-378 67 0
-378 -122 0
-378 108 0
378 43 98 -67 122 -108 0
-379 -27 0
-379 -100 0
-379 -104 0
-379 36 0
-379 59 0
379 27 100 104 -36 -59 0
-380 11 0
-380 31 0
-380 -41 0
-380 144 0
-380 107 0
380 -11 -31 41 -144 -107 0
376 377 378 379 380 0
-381 -25 0
-381 179 0
-381 178 0
-381 45 0
-381 16 0
381 25 -179 -178 -45 -16 0
-382 45 0
-382 -129 0
-382 -156 0
-382 -54 0
-382 -138 0
382 -45 129 156 54 138 0
-383 -29 0
-383 -79 0
-383 83 0
-383 157 0
-383 104 0
383 29 79 -83 -157 -104 0
-384 -71 0
-384 -180 0
-384 74 0
-384 112 0
-384 16 0
384 71 180 -74 -112 -16 0
-385 90 0
-385 138 0
-385 51 0
-385 -48 0
-385 -28 0
385 -90 -138 -51 48 28 0
381 382 383 384 385 0
-386 159 0
-386 -26 0
-386 6 0
-386 -187 0
-386 5 0
386 -159 26 -6 187 -5 0
-387 57 0
-387 -48 0
-387 -46 0
-387 163 0
-387 36 0
387 -57 48 46 -163 -36 0
-388 55 0
-388 187 0
-388 88 0
-388 -129 0
-388 33 0
388 -55 -187 -88 129 -33 0
-389 100 0
-389 -90 0
-389 -43 0
-389 -36 0
-389 67 0
389 -100 90 43 36 -67 0
-390 -119 0
-390 -110 0
-390 -158 0
-390 16 0
-390 -57 0
390 119 110 158 -16 57 0
386 387 388 389 390 0
-391 177 0
-391 -60 0
-391 -35 0
-391 176 0
-391 22 0
391 -177 60 35 -176 -22 0
-392 -97 0
-392 64 0
-392 16 0
-392 -17 0
-392 35 0
392 97 -64 -16 17 -35 0
-393 32 0
-393 113 0
-393 -58 0
-393 -179 0
-393 141 0
393 -32 -113 58 179 -141 0
-394 100 0
-394 -20 0
-394 -28 0
-394 16 0
-394 156 0
394 -100 20 28 -16 -156 0
-395 -21 0
-395 45 0
-395 -163 0
-395 147 0
-395 69 0
395 21 -45 163 -147 -69 0
391 392 393 394 395 0
-396 168 0
-396 84 0
-396 78 0
-396 36 0
-396 135 0
396 -168 -84 -78 -36 -135 0
-397 -31 0
-397 -182 0
-397 58 0
-397 36 0
-397 190 0
397 31 182 -58 -36 -190 0
-398 -72 0
-398 -65 0
-398 105 0
-398 171 0
-398 -22 0
398 72 65 -105 -171 22 0
-399 34 0
-399 -57 0
-399 123 0
-399 139 0
-399 -4 0
399 -34 57 -123 -139 4 0
-400 115 0
-400 -131 0
-400 -118 0
-400 57 0
-400 19 0
400 -115 131 118 -57 -19 0
396 397 398 399 400 0
-401 186 0
-401 105 0
-401 -1 0
-401 -29 0
-401 63 0
401 -186 -105 1 29 -63 0
-402 -143 0
-402 65 0
-402 -55 0
-402 -45 0
-402 24 0
402 143 -65 55 45 -24 0
-403 -89 0
-403 -8 0
-403 -91 0
-403 35 0
-403 -170 0
403 89 8 91 -35 170 0
-404 112 0
-404 -190 0
-404 82 0
-404 38 0
-404 140 0
404 -112 190 -82 -38 -140 0
-405 -112 0
-405 136 0
-405 55 0
-405 -145 0
-405 -48 0
405 112 -136 -55 145 48 0
401 402 403 404 405 0
-406 116 0
-406 120 0
-406 -94 0
-406 150 0
-406 105 0
406 -116 -120 94 -150 -105 0
-407 4 0
-407 48 0
-407 -167 0
-407 121 0
-407 85 0
407 -4 -48 167 -121 -85 0
-408 -12 0
-408 168 0
-408 179 0
-408 -151 0
-408 117 0
408 12 -168 -179 151 -117 0
-409 94 0
-409 -31 0
-409 52 0
-409 128 0
-409 82 0
409 -94 31 -52 -128 -82 0
-410 -41 0
-410 -66 0
-410 -138 0
-410 -149 0
-410 136 0
410 41 66 138 149 -136 0
406 407 408 409 410 0
-411 -54 0
-411 -86 0
-411 -183 0
-411 -164 0
-411 18 0
411 54 86 183 164 -18 0
-412 -102 0
-412 34 0
-412 -45 0
-412 -90 0
-412 -57 0
412 102 -34 45 90 57 0
-413 170 0
-413 -50 0
-413 96 0
-413 -140 0
-413 -57 0
413 -170 50 -96 140 57 0
-414 131 0
-414 -21 0
-414 22 0
-414 57 0
-414 -108 0
414 -131 21 -22 -57 108 0
-415 119 0
-415 -86 0
-415 -144 0
-415 44 0
-415 10 0
415 -119 86 144 -44 -10 0
411 412 413 414 415 0
-416 83 0
-416 114 0
-416 154 0
-416 86 0
-416 72 0
416 -83 -114 -154 -86 -72 0
-417 71 0
-417 -144 0
-417 -55 0
-417 -12 0
-417 26 0
417 -71 144 55 12 -26 0
-418 142 0
-418 -80 0
-418 -84 0
-418 40 0
-418 92 0
418 -142 80 84 -40 -92 0
-419 -102 0
-419 -135 0
-419 104 0
-419 71 0
-419 40 0
419 102 135 -104 -71 -40 0
-420 -26 0
-420 107 0
-420 -142 0
-420 -99 0
-420 40 0
420 26 -107 142 99 -40 0
416 417 418 419 420 0
-421 -183 0
-421 -138 0
-421 112 0
-421 24 0
-421 28 0
421 183 138 -112 -24 -28 0
-422 -46 0
-422 104 0
-422 83 0
-422 -54 0
-422 64 0
422 46 -104 -83 54 -64 0
-423 -94 0
-423 80 0
-423 -177 0
-423 -165 0
-423 64 0
423 94 -80 177 165 -64 0
-424 -165 0
-424 119 0
-424 52 0
-424 -26 0
-424 154 0
424 165 -119 -52 26 -154 0
-425 -52 0
-425 35 0
-425 -159 0
-425 162 0
-425 160 0
425 52 -35 159 -162 -160 0
421 422 423 424 425 0
-426 -101 0
-426 79 0
-426 -93 0
-426 -75 0
-426 55 0
426 101 -79 93 75 -55 0
-427 51 0
-427 -47 0
-427 -148 0
-427 -97 0
-427 -15 0
427 -51 47 148 97 15 0
-428 139 0
-428 7 0
-428 -126 0
-428 -97 0
-428 160 0
428 -139 -7 126 97 -160 0
-429 -130 0
-429 95 0
-429 112 0
-429 177 0
-429 -13 0
429 130 -95 -112 -177 13 0
-430 -114 0
-430 -11 0
-430 178 0
-430 -7 0
-430 -164 0
430 114 11 -178 7 164 0
426 427 428 429 430 0
